c 1 ~ x(1,1)
c 2 ~ x(1,2)
c 3 ~ x(1,3)
c 4 ~ x(2,1)
c 5 ~ x(2,2)
c 6 ~ x(2,3)
c 7 ~ x(3,1)
c 8 ~ x(3,2)
c 9 ~ x(3,3)
c 10 ~ x(4,1)
c 11 ~ x(4,2)
c 12 ~ x(4,3)
p cnf 12 28
1 2 3 0
4 5 6 0
7 8 9 0
10 11 12 0
-1 -2 0
-1 -3 0
-2 -3 0
-4 -5 0
-4 -6 0
-5 -6 0
-7 -8 0
-7 -9 0
-8 -9 0
-10 -11 0
-10 -12 0
-11 -12 0
-1 -4 0
-2 -5 0
-3 -6 0
-1 -7 0
-2 -8 0
-3 -9 0
-1 -10 0
-2 -11 0
-3 -12 0
-10 -7 0
-11 -8 0
-12 -9 0
